(set-logic ALL)
(declare-fun var0 () String)
(assert (str.in_re var0 (re.++ (re.* (re.union (re.* (re.* (re.union (re.* (re.+ (re.+ (re.union (re.+ (str.to_re "00")) (re.+ (str.to_re "11")))))) (re.* (re.* (re.+ (re.union (re.union (str.to_re "222") (str.to_re "333")) (re.union (str.to_re "4") (str.to_re "5"))))))))) (re.* (re.union (re.* (re.* (re.union (re.union (re.union (re.+ (str.to_re "666")) (re.+ (str.to_re "77"))) (re.union (re.union (str.to_re "8") (str.to_re "99")) (re.union (str.to_re "a") (str.to_re "bb")))) (re.union (re.+ (re.union (str.to_re "cc") (str.to_re "dd"))) (re.+ (re.* (str.to_re "ee"))))))) (re.* (re.* (re.* (re.+ (re.* (re.union (str.to_re "ff") (str.to_re "ggg"))))))))))) (re.* (re.* (re.union (re.union (re.+ (re.+ (re.* (re.+ (re.union (re.union (str.to_re "hhh") (str.to_re "i")) (re.union (str.to_re "jj") (str.to_re "k"))))))) (re.+ (re.* (re.+ (re.union (re.union (re.union (str.to_re "lll") (str.to_re "m")) (re.union (str.to_re "nn") (str.to_re "oo"))) (re.union (re.union (str.to_re "p") (str.to_re "qq")) (re.union (str.to_re "r") (str.to_re "sss")))))))) (re.union (re.* (re.+ (re.+ (re.union (re.* (re.* (str.to_re "t"))) (re.* (re.* (str.to_re "uuu"))))))) (re.* (re.* (re.union (re.* (re.union (re.+ (str.to_re "v")) (re.+ (str.to_re "ww")))) (re.* (re.+ (re.union (str.to_re "xxx") (str.to_re "y"))))))))))))))
(assert (<= 15 (str.len var0)))
(check-sat)